Maximize

168 dSta_0 + 20 d0_1.0 + 161 d0_1.1 + 60 d0_1 + 2 d1_2.0 + 32 d1_2.1 + 0 d1_2 + 21 d1_3.0 + 164 d1_3.1 + 0 d1_3 + 22 d2_3.0 + 163 d2_3.1 + 0 d2_3 + 2 d3_4.0 + 31 d3_4.1 + 0 d3_4 + 7 d3_5.0 + 65 d3_5.1 + 0 d3_5 + 8 d4_5.0 + 65 d4_5.1 + 0 d4_5 + 29 d5_6.0 + 161 d5_6.1 + 0 d5_6 + 13 d6_7.0 + 127 d6_7.1 + 30 d6_7 + 19 d6_1.0 + 162 d6_1.1 + 30 d6_1 + 119 d7_9.0 + 194 d7_9.1 + 30 d7_9 + 2 d9_10.0 + 32 d9_10.1 + 90 d9_10 + 2 d9_11.0 + 32 d9_11.1 + 90 d9_11 + 3 d10_11.0 + 31 d10_11.1 + 0 d10_11 + 2 d11_12.0 + 32 d11_12.1 + 0 d11_12 + 2 d11_13.0 + 32 d11_13.1 + 0 d11_13 + 2 d12_17.0 + 32 d12_17.1 + 0 d12_17 + 3 d13_14.0 + 33 d13_14.1 + 0 d13_14 + 2 d14_15.0 + 61 d14_15.1 + 0 d14_15 + 1 d14_16.0 + 30 d14_16.1 + 0 d14_16 + 3 d15_14.0 + 33 d15_14.1 + 0 d15_14 + 2 d16_17.0 + 32 d16_17.1 + 0 d16_17 + 4 d17_18.0 + 34 d17_18.1 + 0 d17_18 + 4 d17_21.0 + 64 d17_21.1 + 0 d17_21 + 7 d18_19.0 + 66 d18_19.1 + 0 d18_19 + 16 d18_20.0 + 131 d18_20.1 + 0 d18_20 + 16 d19_20.0 + 130 d19_20.1 + 0 d19_20 + 7 d19_19.0 + 66 d19_19.1 + 0 d19_19 + 4 d20_21.0 + 63 d20_21.1 + 0 d20_21 + 4 d20_18.0 + 34 d20_18.1 + 0 d20_18 + 6 d21_22.0 + 93 d21_22.1 + 0 d21_22 + 30 d21_35.0 + 161 d21_35.1 + 0 d21_35 + 4 d22_23.0 + 34 d22_23.1 + 0 d22_23 + 4 d23_24.0 + 34 d23_24.1 + 0 d23_24 + 35 d23_25.0 + 96 d23_25.1 + 0 d23_25 + 36 d24_25.0 + 95 d24_25.1 + 0 d24_25 + 14 d25_26.0 + 65 d25_26.1 + 0 d25_26 + 6 d26_27.0 + 62 d26_27.1 + 0 d26_27 + 5 d27_28.0 + 35 d27_28.1 + 0 d27_28 + 6 d28_29.0 + 36 d28_29.1 + 0 d28_29 + 11 d29_30.0 + 68 d29_30.1 + 0 d29_30 + 4 d29_34.0 + 63 d29_34.1 + 0 d29_34 + 3 d30_31.0 + 62 d30_31.1 + 0 d30_31 + 3 d30_33.0 + 62 d30_33.1 + 0 d30_33 + 139 d31_32.0 + 393 d31_32.1 + 0 d31_32 + 3 d32_33.0 + 61 d32_33.1 + 0 d32_33 + 139 d32_32.0 + 394 d32_32.1 + 0 d32_32 + 4 d33_34.0 + 63 d33_34.1 + 0 d33_34 + 11 d33_30.0 + 68 d33_30.1 + 0 d33_30 + 30 d34_35.0 + 161 d34_35.1 + 0 d34_35 + 4 d34_23.0 + 34 d34_23.1 + 0 d34_23 + 69 d35_8.0 + 99 d35_8.1 + 60 d35_8


Subject to

cm - 5 d0_1.1 - 5 d6_1.1 - d1_2.1 - 5 d1_3.1 - 5 d2_3.1 - d3_4.1 - 2 d3_5.1 - 2 d4_5.1 - 5 d5_6.1 - 4 d6_7.1 - 2 d35_8.0 - 3 d35_8.1 - 3 d7_9.0 - 6 d7_9.1 - d9_10.1 - d9_11.1 - d10_11.1 - d11_12.1 - d11_13.1 - d13_14.1 - d15_14.1 - 2 d14_15.1 - d14_16.1 - d12_17.1 - d16_17.1 - d17_18.1 - d20_18.1 - 2 d18_19.1 - 2 d19_19.1 - 4 d18_20.1 - 4 d19_20.1 - 2 d17_21.1 - 2 d20_21.1 - 3 d21_22.1 - d22_23.1 - d34_23.1 - d23_24.1 - 3 d23_25.1 - 3 d24_25.1 - 2 d25_26.1 - 2 d26_27.1 - d27_28.1 - d28_29.1 - 2 d29_30.1 - 2 d33_30.1 - 2 d30_31.1 - 12 d31_32.1 - 12 d32_32.1 - 2 d30_33.1 - 2 d32_33.1 - 2 d29_34.1 - 2 d33_34.1 - 5 d21_35.1 - 5 d34_35.1 = 5

\ === tcfg constraints ===
dSta_0 = 1
b0 - d0_1 = 0
b0 - dSta_0 = 0
b1 - d1_2 - d1_3 = 0
b1 - d0_1 - d6_1 = 0
b2 - d2_3 = 0
b2 - d1_2 = 0
b3 - d3_4 - d3_5 = 0
b3 - d1_3 - d2_3 = 0
b4 - d4_5 = 0
b4 - d3_4 = 0
b5 - d5_6 = 0
b5 - d3_5 - d4_5 = 0
b6 - d6_7 - d6_1 = 0
b6 - d5_6 = 0
b7 - d7_9 = 0
b7 - d6_7 = 0
b8 - d35_8 = 0
b9 - d9_10 - d9_11 = 0
b9 - d7_9 = 0
b10 - d10_11 = 0
b10 - d9_10 = 0
b11 - d11_12 - d11_13 = 0
b11 - d9_11 - d10_11 = 0
b12 - d12_17 = 0
b12 - d11_12 = 0
b13 - d13_14 = 0
b13 - d11_13 = 0
b14 - d14_15 - d14_16 = 0
b14 - d13_14 - d15_14 = 0
b15 - d15_14 = 0
b15 - d14_15 = 0
b16 - d16_17 = 0
b16 - d14_16 = 0
b17 - d17_18 - d17_21 = 0
b17 - d12_17 - d16_17 = 0
b18 - d18_19 - d18_20 = 0
b18 - d17_18 - d20_18 = 0
b19 - d19_20 - d19_19 = 0
b19 - d18_19 - d19_19 = 0
b20 - d20_21 - d20_18 = 0
b20 - d18_20 - d19_20 = 0
b21 - d21_22 - d21_35 = 0
b21 - d17_21 - d20_21 = 0
b22 - d22_23 = 0
b22 - d21_22 = 0
b23 - d23_24 - d23_25 = 0
b23 - d22_23 - d34_23 = 0
b24 - d24_25 = 0
b24 - d23_24 = 0
b25 - d25_26 = 0
b25 - d23_25 - d24_25 = 0
b26 - d26_27 = 0
b26 - d25_26 = 0
b27 - d27_28 = 0
b27 - d26_27 = 0
b28 - d28_29 = 0
b28 - d27_28 = 0
b29 - d29_30 - d29_34 = 0
b29 - d28_29 = 0
b30 - d30_31 - d30_33 = 0
b30 - d29_30 - d33_30 = 0
b31 - d31_32 = 0
b31 - d30_31 = 0
b32 - d32_33 - d32_32 = 0
b32 - d31_32 - d32_32 = 0
b33 - d33_34 - d33_30 = 0
b33 - d30_33 - d32_33 = 0
b34 - d34_35 - d34_23 = 0
b34 - d29_34 - d33_34 = 0
b35 - d35_8 = 0
b35 - d21_35 - d34_35 = 0


\ === cache_cons ===
b0.0 <= 1
b1 - b1.0 - b1.1 = 0
b2 - b2.0 - b2.1 = 0
b3 - b3.0 - b3.1 = 0
b4 - b4.0 - b4.1 = 0
b5 - b5.0 - b5.1 = 0
b6 - b6.0 - b6.1 = 0
b7 - b7.0 - b7.1 = 0
b8 - b8.0 - b8.1 = 0
b9 - b9.0 - b9.1 = 0
b10 - b10.0 - b10.1 = 0
b11 - b11.0 - b11.1 = 0
b12 - b12.0 - b12.1 = 0
b13 - b13.0 - b13.1 = 0
b14 - b14.0 - b14.1 = 0
b15 - b15.0 - b15.1 = 0
b16 - b16.0 - b16.1 = 0
b17 - b17.0 - b17.1 = 0
b18 - b18.0 - b18.1 = 0
b19 - b19.0 - b19.1 = 0
b20 - b20.0 - b20.1 = 0
b21 - b21.0 - b21.1 = 0
b22 - b22.0 - b22.1 = 0
b23 - b23.0 - b23.1 = 0
b24 - b24.0 - b24.1 = 0
b25 - b25.0 - b25.1 = 0
b26 - b26.0 - b26.1 = 0
b27 - b27.0 - b27.1 = 0
b28 - b28.0 - b28.1 = 0
b29 - b29.0 - b29.1 = 0
b30 - b30.0 - b30.1 = 0
b31 - b31.0 - b31.1 = 0
b32 - b32.0 - b32.1 = 0
b33 - b33.0 - b33.1 = 0
b34 - b34.0 - b34.1 = 0
b35 - b35.0 - b35.1 = 0

b0.0 <= 1
b1.0 - d0_1.0 - d6_1.0 = 0
b1.1 - d0_1.1 - d6_1.1 = 0
b2.0 - d1_2.0 = 0
b2.1 - d1_2.1 = 0
b3.0 - d1_3.0 - d2_3.0 = 0
b3.1 - d1_3.1 - d2_3.1 = 0
b4.0 - d3_4.0 = 0
b4.1 - d3_4.1 = 0
b5.0 - d3_5.0 - d4_5.0 = 0
b5.1 - d3_5.1 - d4_5.1 = 0
b6.0 - d5_6.0 = 0
b6.1 - d5_6.1 = 0
b7.0 - d6_7.0 = 0
b7.1 - d6_7.1 = 0
b8.0 - d35_8.0 = 0
b8.1 - d35_8.1 = 0
b9.0 - d7_9.0 = 0
b9.1 - d7_9.1 = 0
b10.0 - d9_10.0 = 0
b10.1 - d9_10.1 = 0
b11.0 - d9_11.0 - d10_11.0 = 0
b11.1 - d9_11.1 - d10_11.1 = 0
b12.0 - d11_12.0 = 0
b12.1 - d11_12.1 = 0
b13.0 - d11_13.0 = 0
b13.1 - d11_13.1 = 0
b14.0 - d13_14.0 - d15_14.0 = 0
b14.1 - d13_14.1 - d15_14.1 = 0
b15.0 - d14_15.0 = 0
b15.1 - d14_15.1 = 0
b16.0 - d14_16.0 = 0
b16.1 - d14_16.1 = 0
b17.0 - d12_17.0 - d16_17.0 = 0
b17.1 - d12_17.1 - d16_17.1 = 0
b18.0 - d17_18.0 - d20_18.0 = 0
b18.1 - d17_18.1 - d20_18.1 = 0
b19.0 - d18_19.0 - d19_19.0 = 0
b19.1 - d18_19.1 - d19_19.1 = 0
b20.0 - d18_20.0 - d19_20.0 = 0
b20.1 - d18_20.1 - d19_20.1 = 0
b21.0 - d17_21.0 - d20_21.0 = 0
b21.1 - d17_21.1 - d20_21.1 = 0
b22.0 - d21_22.0 = 0
b22.1 - d21_22.1 = 0
b23.0 - d22_23.0 - d34_23.0 = 0
b23.1 - d22_23.1 - d34_23.1 = 0
b24.0 - d23_24.0 = 0
b24.1 - d23_24.1 = 0
b25.0 - d23_25.0 - d24_25.0 = 0
b25.1 - d23_25.1 - d24_25.1 = 0
b26.0 - d25_26.0 = 0
b26.1 - d25_26.1 = 0
b27.0 - d26_27.0 = 0
b27.1 - d26_27.1 = 0
b28.0 - d27_28.0 = 0
b28.1 - d27_28.1 = 0
b29.0 - d28_29.0 = 0
b29.1 - d28_29.1 = 0
b30.0 - d29_30.0 - d33_30.0 = 0
b30.1 - d29_30.1 - d33_30.1 = 0
b31.0 - d30_31.0 = 0
b31.1 - d30_31.1 = 0
b32.0 - d31_32.0 - d32_32.0 = 0
b32.1 - d31_32.1 - d32_32.1 = 0
b33.0 - d30_33.0 - d32_33.0 = 0
b33.1 - d30_33.1 - d32_33.1 = 0
b34.0 - d29_34.0 - d33_34.0 = 0
b34.1 - d29_34.1 - d33_34.1 = 0
b35.0 - d21_35.0 - d34_35.0 = 0
b35.1 - d21_35.1 - d34_35.1 = 0

b0.1 <= 1
b1.1 <= 1
b2.1 <= 1
b3.1 <= 1
b4.1 <= 1
b5.1 <= 1
b6.1 <= 1
b7.1 <= 1
b8.1 <= 1
b9.1 <= 1
b10.1 <= 1
b11.1 <= 1
b12.1 <= 1
b13.1 <= 1
b14.1 <= 1
b15.1 <= 1
b16.1 <= 1
b17.1 <= 1
b18.1 <= 1
b19.1 <= 1
b20.1 <= 1
b21.1 <= 1
b22.1 <= 1
b23.1 <= 1
b24.1 <= 1
b25.1 <= 1
b26.1 <= 1
b27.1 <= 1
b28.1 <= 1
b29.1 <= 1
b30.1 <= 1
b31.1 <= 1
b32.1 <= 1
b33.1 <= 1
b34.1 <= 1
b35.1 <= 1

d6_1.1 = 0
d15_14.1 = 0
d19_19.1 = 0
d20_18.1 = 0
d32_32.1 = 0
d33_30.1 = 0
d34_23.1 = 0

\ === tcfg_estunit_cons ===
d0_1 - d0_1.0 - d0_1.1 = 0
d1_2 - d1_2.0 - d1_2.1 = 0
d1_3 - d1_3.0 - d1_3.1 = 0
d2_3 - d2_3.0 - d2_3.1 = 0
d3_4 - d3_4.0 - d3_4.1 = 0
d3_5 - d3_5.0 - d3_5.1 = 0
d4_5 - d4_5.0 - d4_5.1 = 0
d5_6 - d5_6.0 - d5_6.1 = 0
d6_7 - d6_7.0 - d6_7.1 = 0
d6_1 - d6_1.0 - d6_1.1 = 0
d7_9 - d7_9.0 - d7_9.1 = 0
d9_10 - d9_10.0 - d9_10.1 = 0
d9_11 - d9_11.0 - d9_11.1 = 0
d10_11 - d10_11.0 - d10_11.1 = 0
d11_12 - d11_12.0 - d11_12.1 = 0
d11_13 - d11_13.0 - d11_13.1 = 0
d12_17 - d12_17.0 - d12_17.1 = 0
d13_14 - d13_14.0 - d13_14.1 = 0
d14_15 - d14_15.0 - d14_15.1 = 0
d14_16 - d14_16.0 - d14_16.1 = 0
d15_14 - d15_14.0 - d15_14.1 = 0
d16_17 - d16_17.0 - d16_17.1 = 0
d17_18 - d17_18.0 - d17_18.1 = 0
d17_21 - d17_21.0 - d17_21.1 = 0
d18_19 - d18_19.0 - d18_19.1 = 0
d18_20 - d18_20.0 - d18_20.1 = 0
d19_20 - d19_20.0 - d19_20.1 = 0
d19_19 - d19_19.0 - d19_19.1 = 0
d20_21 - d20_21.0 - d20_21.1 = 0
d20_18 - d20_18.0 - d20_18.1 = 0
d21_22 - d21_22.0 - d21_22.1 = 0
d21_35 - d21_35.0 - d21_35.1 = 0
d22_23 - d22_23.0 - d22_23.1 = 0
d23_24 - d23_24.0 - d23_24.1 = 0
d23_25 - d23_25.0 - d23_25.1 = 0
d24_25 - d24_25.0 - d24_25.1 = 0
d25_26 - d25_26.0 - d25_26.1 = 0
d26_27 - d26_27.0 - d26_27.1 = 0
d27_28 - d27_28.0 - d27_28.1 = 0
d28_29 - d28_29.0 - d28_29.1 = 0
d29_30 - d29_30.0 - d29_30.1 = 0
d29_34 - d29_34.0 - d29_34.1 = 0
d30_31 - d30_31.0 - d30_31.1 = 0
d30_33 - d30_33.0 - d30_33.1 = 0
d31_32 - d31_32.0 - d31_32.1 = 0
d32_33 - d32_33.0 - d32_33.1 = 0
d32_32 - d32_32.0 - d32_32.1 = 0
d33_34 - d33_34.0 - d33_34.1 = 0
d33_30 - d33_30.0 - d33_30.1 = 0
d34_35 - d34_35.0 - d34_35.1 = 0
d34_23 - d34_23.0 - d34_23.1 = 0
d35_8 - d35_8.0 - d35_8.1 = 0

\ === infeasible path constraints ===
d11_13 + d21_35 <= 1
d11_12 + d21_22 <= 1

b1- 200 b0 <= 0
b14- 4 b13 <= 0
b19- 3 b18 <= 0
b18- 200 b17 <= 0
b32- 4 b31 <= 0
b30- 30 b29 <= 0
b23- 7 b22 <= 0

Generals

cm
Sta
b0
d0_1
b1
d1_2
d1_3
b2
d2_3
b3
d3_4
d3_5
b4
d4_5
b5
d5_6
b6
d6_7
d6_1
b7
d7_9
b8
b9
d9_10
d9_11
b10
d10_11
b11
d11_12
d11_13
b12
d12_17
b13
d13_14
b14
d14_15
d14_16
b15
d15_14
b16
d16_17
b17
d17_18
d17_21
b18
d18_19
d18_20
b19
d19_20
d19_19
b20
d20_21
d20_18
b21
d21_22
d21_35
b22
d22_23
b23
d23_24
d23_25
b24
d24_25
b25
d25_26
b26
d26_27
b27
d27_28
b28
d28_29
b29
d29_30
d29_34
b30
d30_31
d30_33
b31
d31_32
b32
d32_33
d32_32
b33
d33_34
d33_30
b34
d34_35
d34_23
b35
d35_8
b0.0
b1.0
b1.1
b2.0
b2.1
b3.0
b3.1
b4.0
b4.1
b5.0
b5.1
b6.0
b6.1
b7.0
b7.1
b8.0
b8.1
b9.0
b9.1
b10.0
b10.1
b11.0
b11.1
b12.0
b12.1
b13.0
b13.1
b14.0
b14.1
b15.0
b15.1
b16.0
b16.1
b17.0
b17.1
b18.0
b18.1
b19.0
b19.1
b20.0
b20.1
b21.0
b21.1
b22.0
b22.1
b23.0
b23.1
b24.0
b24.1
b25.0
b25.1
b26.0
b26.1
b27.0
b27.1
b28.0
b28.1
b29.0
b29.1
b30.0
b30.1
b31.0
b31.1
b32.0
b32.1
b33.0
b33.1
b34.0
b34.1
b35.0
b35.1
b0.0
b1.0
b1.1
b2.0
b2.1
b3.0
b3.1
b4.0
b4.1
b5.0
b5.1
b6.0
b6.1
b7.0
b7.1
b8.0
b8.1
b9.0
b9.1
b10.0
b10.1
b11.0
b11.1
b12.0
b12.1
b13.0
b13.1
b14.0
b14.1
b15.0
b15.1
b16.0
b16.1
b17.0
b17.1
b18.0
b18.1
b19.0
b19.1
b20.0
b20.1
b21.0
b21.1
b22.0
b22.1
b23.0
b23.1
b24.0
b24.1
b25.0
b25.1
b26.0
b26.1
b27.0
b27.1
b28.0
b28.1
b29.0
b29.1
b30.0
b30.1
b31.0
b31.1
b32.0
b32.1
b33.0
b33.1
b34.0
b34.1
b35.0
b35.1

End
\ total_cons: 281 	total_vars: 232
